sing20170425.12
TTAA 75121 48698
99006 26620 06004 00077 26023 17004 92765 23445 12505
85499 18619 35504 70144 10439 34009 50588 03741 30009
40760 14327 08504 30972 29132 05005 25100 39540 04506
20248 52149 09005 15428 67350 09509 10663 83347 33002=
TTCC 75121 48698
70864 70770 23505 50065 68371 28537 30377 56980 27029
20638 52582 35522 10096 42988 08036
88909 84938 05506 77999=
TTDD 7512/ 48698
11909 84938 22820 82557 33762 73368 44724 75367 55697
70770 66351 64975 77293 55580 88246 52382 99211 54381
11186 52583 22181 48784 33167 51183 44156 46985 55150
48584 66079 38591 77077 38591
21212 11875 07011 22827 01016 33785 04029 44733 03014
55707 29502 66625 31510 77588 24517 88509 28539 99443
26527 11422 28526 22407 26525 33398 25027 44362 24539
55296 27526 66275 29035 77254 29031 88241 25528 99234
25022 11228 28017 22224 30018 33214 31530 44207 32525
55191 05519 66188 07022 77171 11036 88163 08541 99151
11045 11138 10553 22121 11537 33116 09035 44103 08534=
